set DEMAND_POINTS := J K L M N;
set CANDIDATE_LOCATIONS := A B C D E;

param a: A B C D E := # define matrix A
	   J 1 1 0 0 0
	   K 1 1 1 0 0
	   L 0 1 0 1 0
	   M 0 0 0 1 1
	   N 0 1 1 1 1;
	   
param b: A B C D E:=
	   A 0 1 1 0 0
	   B 1 0 1 1 1
	   C 1 1 0 0 0
	   D 0 1 0 0 1
	   E 0 1 0 1 0;

param: c := # defines cost
	A 1
	B 1
	C 1
	D 1
	E 1;
	
	